c nIsolatedPIs 0
c maxPI 32
p cnf 330 895
c gate 33 -9 -25 0
-9 -33 0
-25 -33 0
9 25 33 0
c gate 34 9 25 0
9 -34 0
25 -34 0
-9 -25 34 0
c gate 35 -33 -34 0
-33 -35 0
-34 -35 0
33 34 35 0
c gate 36 8 24 0
8 -36 0
24 -36 0
-8 -24 36 0
c gate 37 -7 -23 0
-7 -37 0
-23 -37 0
7 23 37 0
c gate 38 -6 -22 0
-6 -38 0
-22 -38 0
6 22 38 0
c gate 39 5 21 0
5 -39 0
21 -39 0
-5 -21 39 0
c gate 40 4 20 0
4 -40 0
20 -40 0
-4 -20 40 0
c gate 41 -4 -20 0
-4 -41 0
-20 -41 0
4 20 41 0
c gate 42 -40 -41 0
-40 -42 0
-41 -42 0
40 41 42 0
c gate 43 3 19 0
3 -43 0
19 -43 0
-3 -19 43 0
c gate 44 -2 18 0
-2 -44 0
18 -44 0
2 -18 44 0
c gate 45 2 -18 0
2 -45 0
-18 -45 0
-2 18 45 0
c gate 46 -44 -45 0
-44 -46 0
-45 -46 0
44 45 46 0
c gate 47 1 17 0
1 -47 0
17 -47 0
-1 -17 47 0
c gate 48 -46 47 0
-46 -48 0
47 -48 0
46 -47 48 0
c gate 49 2 18 0
2 -49 0
18 -49 0
-2 -18 49 0
c gate 50 -48 -49 0
-48 -50 0
-49 -50 0
48 49 50 0
c gate 51 18 -50 0
18 -51 0
-50 -51 0
-18 50 51 0
c gate 52 -43 -51 0
-43 -52 0
-51 -52 0
43 51 52 0
c gate 53 42 -52 0
42 -53 0
-52 -53 0
-42 52 53 0
c gate 54 -40 -53 0
-40 -54 0
-53 -54 0
40 53 54 0
c gate 55 -39 54 0
-39 -55 0
54 -55 0
39 -54 55 0
c gate 56 -38 -55 0
-38 -56 0
-55 -56 0
38 55 56 0
c gate 57 -37 56 0
-37 -57 0
56 -57 0
37 -56 57 0
c gate 58 -36 -57 0
-36 -58 0
-57 -58 0
36 57 58 0
c gate 59 35 -58 0
35 -59 0
-58 -59 0
-35 58 59 0
c gate 60 -35 58 0
-35 -60 0
58 -60 0
35 -58 60 0
c gate 61 -59 -60 0
-59 -61 0
-60 -61 0
59 60 61 0
c gate 62 -8 -24 0
-8 -62 0
-24 -62 0
8 24 62 0
c gate 63 7 23 0
7 -63 0
23 -63 0
-7 -23 63 0
c gate 64 6 22 0
6 -64 0
22 -64 0
-6 -22 64 0
c gate 65 6 -22 0
6 -65 0
-22 -65 0
-6 22 65 0
c gate 66 -6 22 0
-6 -66 0
22 -66 0
6 -22 66 0
c gate 67 -65 -66 0
-65 -67 0
-66 -67 0
65 66 67 0
c gate 68 -5 21 0
-5 -68 0
21 -68 0
5 -21 68 0
c gate 69 5 -21 0
5 -69 0
-21 -69 0
-5 21 69 0
c gate 70 -68 -69 0
-68 -70 0
-69 -70 0
68 69 70 0
c gate 71 -3 19 0
-3 -71 0
19 -71 0
3 -19 71 0
c gate 72 3 -19 0
3 -72 0
-19 -72 0
-3 19 72 0
c gate 73 -71 -72 0
-71 -73 0
-72 -73 0
71 72 73 0
c gate 74 -50 -73 0
-50 -74 0
-73 -74 0
50 73 74 0
c gate 75 -43 -74 0
-43 -75 0
-74 -75 0
43 74 75 0
c gate 76 42 75 0
42 -76 0
75 -76 0
-42 -75 76 0
c gate 77 -41 -76 0
-41 -77 0
-76 -77 0
41 76 77 0
c gate 78 -70 77 0
-70 -78 0
77 -78 0
70 -77 78 0
c gate 79 -39 -78 0
-39 -79 0
-78 -79 0
39 78 79 0
c gate 80 -67 -79 0
-67 -80 0
-79 -80 0
67 79 80 0
c gate 81 -64 -80 0
-64 -81 0
-80 -81 0
64 80 81 0
c gate 82 -37 -63 0
-37 -82 0
-63 -82 0
37 63 82 0
c gate 83 -81 82 0
-81 -83 0
82 -83 0
81 -82 83 0
c gate 84 -63 -83 0
-63 -84 0
-83 -84 0
63 83 84 0
c gate 85 -62 -84 0
-62 -85 0
-84 -85 0
62 84 85 0
c gate 86 -36 -85 0
-36 -86 0
-85 -86 0
36 85 86 0
c gate 87 35 86 0
35 -87 0
86 -87 0
-35 -86 87 0
c gate 88 -35 -86 0
-35 -88 0
-86 -88 0
35 86 88 0
c gate 89 -87 -88 0
-87 -89 0
-88 -89 0
87 88 89 0
c gate 90 61 89 0
61 -90 0
89 -90 0
-61 -89 90 0
c gate 91 -61 -89 0
-61 -91 0
-89 -91 0
61 89 91 0
c gate 92 -90 -91 0
-90 -92 0
-91 -92 0
90 91 92 0
c gate 93 58 85 0
58 -93 0
85 -93 0
-58 -85 93 0
c gate 94 81 -82 0
81 -94 0
-82 -94 0
-81 82 94 0
c gate 95 -83 -94 0
-83 -95 0
-94 -95 0
83 94 95 0
c gate 96 56 -82 0
56 -96 0
-82 -96 0
-56 82 96 0
c gate 97 -56 82 0
-56 -97 0
82 -97 0
56 -82 97 0
c gate 98 -96 -97 0
-96 -98 0
-97 -98 0
96 97 98 0
c gate 99 -95 -98 0
-95 -99 0
-98 -99 0
95 98 99 0
c gate 100 95 98 0
95 -100 0
98 -100 0
-95 -98 100 0
c gate 101 67 79 0
67 -101 0
79 -101 0
-67 -79 101 0
c gate 102 -80 -101 0
-80 -102 0
-101 -102 0
80 101 102 0
c gate 103 55 67 0
55 -103 0
67 -103 0
-55 -67 103 0
c gate 104 -55 -67 0
-55 -104 0
-67 -104 0
55 67 104 0
c gate 105 -103 -104 0
-103 -105 0
-104 -105 0
103 104 105 0
c gate 106 -102 105 0
-102 -106 0
105 -106 0
102 -105 106 0
c gate 107 70 -77 0
70 -107 0
-77 -107 0
-70 77 107 0
c gate 108 -78 -107 0
-78 -108 0
-107 -108 0
78 107 108 0
c gate 109 54 70 0
54 -109 0
70 -109 0
-54 -70 109 0
c gate 110 -54 -70 0
-54 -110 0
-70 -110 0
54 70 110 0
c gate 111 -109 -110 0
-109 -111 0
-110 -111 0
109 110 111 0
c gate 112 108 -111 0
108 -112 0
-111 -112 0
-108 111 112 0
c gate 113 102 -105 0
102 -113 0
-105 -113 0
-102 105 113 0
c gate 114 -106 -113 0
-106 -114 0
-113 -114 0
106 113 114 0
c gate 115 -112 114 0
-112 -115 0
114 -115 0
112 -114 115 0
c gate 116 -106 -115 0
-106 -116 0
-115 -116 0
106 115 116 0
c gate 117 -100 -116 0
-100 -117 0
-116 -117 0
100 116 117 0
c gate 118 18 -73 0
18 -118 0
-73 -118 0
-18 73 118 0
c gate 119 -50 -118 0
-50 -119 0
-118 -119 0
50 118 119 0
c gate 120 -108 111 0
-108 -120 0
111 -120 0
108 -111 120 0
c gate 121 -42 -75 0
-42 -121 0
-75 -121 0
42 75 121 0
c gate 122 -76 -121 0
-76 -122 0
-121 -122 0
76 121 122 0
c gate 123 -42 52 0
-42 -123 0
52 -123 0
42 -52 123 0
c gate 124 -53 -123 0
-53 -124 0
-123 -124 0
53 123 124 0
c gate 125 122 124 0
122 -125 0
124 -125 0
-122 -124 125 0
c gate 126 -2 74 0
-2 -126 0
74 -126 0
2 -74 126 0
c gate 127 -125 -126 0
-125 -127 0
-126 -127 0
125 126 127 0
c gate 128 -112 -127 0
-112 -128 0
-127 -128 0
112 127 128 0
c gate 129 -120 -128 0
-120 -129 0
-128 -129 0
120 128 129 0
c gate 130 115 129 0
115 -130 0
129 -130 0
-115 -129 130 0
c gate 131 119 130 0
119 -131 0
130 -131 0
-119 -130 131 0
c gate 132 117 -131 0
117 -132 0
-131 -132 0
-117 131 132 0
c gate 133 -99 -132 0
-99 -133 0
-132 -133 0
99 132 133 0
c gate 134 -93 133 0
-93 -134 0
133 -134 0
93 -133 134 0
c gate 135 -36 -62 0
-36 -135 0
-62 -135 0
36 62 135 0
c gate 136 57 135 0
57 -136 0
135 -136 0
-57 -135 136 0
c gate 137 84 -136 0
84 -137 0
-136 -137 0
-84 136 137 0
c gate 138 -84 135 0
-84 -138 0
135 -138 0
84 -135 138 0
c gate 139 -137 -138 0
-137 -139 0
-138 -139 0
137 138 139 0
c gate 140 -134 -139 0
-134 -140 0
-139 -140 0
134 139 140 0
c gate 141 92 140 0
92 -141 0
140 -141 0
-92 -140 141 0
c gate 142 -11 27 0
-11 -142 0
27 -142 0
11 -27 142 0
c gate 143 11 -27 0
11 -143 0
-27 -143 0
-11 27 143 0
c gate 144 -142 -143 0
-142 -144 0
-143 -144 0
142 143 144 0
c gate 145 -34 -59 0
-34 -145 0
-59 -145 0
34 59 145 0
c gate 146 10 -145 0
10 -146 0
-145 -146 0
-10 145 146 0
c gate 147 -10 26 0
-10 -147 0
26 -147 0
10 -26 147 0
c gate 148 10 -26 0
10 -148 0
-26 -148 0
-10 26 148 0
c gate 149 -147 -148 0
-147 -149 0
-148 -149 0
147 148 149 0
c gate 150 145 -149 0
145 -150 0
-149 -150 0
-145 149 150 0
c gate 151 26 -150 0
26 -151 0
-150 -151 0
-26 150 151 0
c gate 152 -146 -151 0
-146 -152 0
-151 -152 0
146 151 152 0
c gate 153 -144 -152 0
-144 -153 0
-152 -153 0
144 152 153 0
c gate 154 144 152 0
144 -154 0
152 -154 0
-144 -152 154 0
c gate 155 -153 -154 0
-153 -155 0
-154 -155 0
153 154 155 0
c gate 156 -33 -87 0
-33 -156 0
-87 -156 0
33 87 156 0
c gate 157 10 156 0
10 -157 0
156 -157 0
-10 -156 157 0
c gate 158 -149 -156 0
-149 -158 0
-156 -158 0
149 156 158 0
c gate 159 26 -158 0
26 -159 0
-158 -159 0
-26 158 159 0
c gate 160 -157 -159 0
-157 -160 0
-159 -160 0
157 159 160 0
c gate 161 -144 -160 0
-144 -161 0
-160 -161 0
144 160 161 0
c gate 162 144 160 0
144 -162 0
160 -162 0
-144 -160 162 0
c gate 163 -161 -162 0
-161 -163 0
-162 -163 0
161 162 163 0
c gate 164 155 -163 0
155 -164 0
-163 -164 0
-155 163 164 0
c gate 165 -155 163 0
-155 -165 0
163 -165 0
155 -163 165 0
c gate 166 -164 -165 0
-164 -166 0
-165 -166 0
164 165 166 0
c gate 167 -144 -166 0
-144 -167 0
-166 -167 0
144 166 167 0
c gate 168 -12 28 0
-12 -168 0
28 -168 0
12 -28 168 0
c gate 169 12 -28 0
12 -169 0
-28 -169 0
-12 28 169 0
c gate 170 -168 -169 0
-168 -170 0
-169 -170 0
168 169 170 0
c gate 171 11 27 0
11 -171 0
27 -171 0
-11 -27 171 0
c gate 172 -153 -171 0
-153 -172 0
-171 -172 0
153 171 172 0
c gate 173 -170 -172 0
-170 -173 0
-172 -173 0
170 172 173 0
c gate 174 170 172 0
170 -174 0
172 -174 0
-170 -172 174 0
c gate 175 -173 -174 0
-173 -175 0
-174 -175 0
173 174 175 0
c gate 176 167 -175 0
167 -176 0
-175 -176 0
-167 175 176 0
c gate 177 149 156 0
149 -177 0
156 -177 0
-149 -156 177 0
c gate 178 -158 -177 0
-158 -178 0
-177 -178 0
158 177 178 0
c gate 179 91 -178 0
91 -179 0
-178 -179 0
-91 178 179 0
c gate 180 -91 178 0
-91 -180 0
178 -180 0
91 -178 180 0
c gate 181 -145 149 0
-145 -181 0
149 -181 0
145 -149 181 0
c gate 182 -150 -181 0
-150 -182 0
-181 -182 0
150 181 182 0
c gate 183 -180 182 0
-180 -183 0
182 -183 0
180 -182 183 0
c gate 184 -179 -183 0
-179 -184 0
-183 -184 0
179 183 184 0
c gate 185 -165 184 0
-165 -185 0
184 -185 0
165 -184 185 0
c gate 186 -164 -185 0
-164 -186 0
-185 -186 0
164 185 186 0
c gate 187 -167 186 0
-167 -187 0
186 -187 0
167 -186 187 0
c gate 188 -176 -187 0
-176 -188 0
-187 -188 0
176 187 188 0
c gate 189 -92 188 0
-92 -189 0
188 -189 0
92 -188 189 0
c gate 190 167 -170 0
167 -190 0
-170 -190 0
-167 170 190 0
c gate 191 -189 -190 0
-189 -191 0
-190 -191 0
189 190 191 0
c gate 192 -16 -32 0
-16 -192 0
-32 -192 0
16 32 192 0
c gate 193 16 32 0
16 -193 0
32 -193 0
-16 -32 193 0
c gate 194 -192 -193 0
-192 -194 0
-193 -194 0
192 193 194 0
c gate 195 15 31 0
15 -195 0
31 -195 0
-15 -31 195 0
c gate 196 -13 -29 0
-13 -196 0
-29 -196 0
13 29 196 0
c gate 197 12 28 0
12 -197 0
28 -197 0
-12 -28 197 0
c gate 198 -173 -197 0
-173 -198 0
-197 -198 0
173 197 198 0
c gate 199 -196 -198 0
-196 -199 0
-198 -199 0
196 198 199 0
c gate 200 13 29 0
13 -200 0
29 -200 0
-13 -29 200 0
c gate 201 14 30 0
14 -201 0
30 -201 0
-14 -30 201 0
c gate 202 -200 -201 0
-200 -202 0
-201 -202 0
200 201 202 0
c gate 203 -199 202 0
-199 -203 0
202 -203 0
199 -202 203 0
c gate 204 -15 -31 0
-15 -204 0
-31 -204 0
15 31 204 0
c gate 205 -14 -30 0
-14 -205 0
-30 -205 0
14 30 205 0
c gate 206 -204 -205 0
-204 -206 0
-205 -206 0
204 205 206 0
c gate 207 -203 206 0
-203 -207 0
206 -207 0
203 -206 207 0
c gate 208 -195 -207 0
-195 -208 0
-207 -208 0
195 207 208 0
c gate 209 194 208 0
194 -209 0
208 -209 0
-194 -208 209 0
c gate 210 -194 -208 0
-194 -210 0
-208 -210 0
194 208 210 0
c gate 211 -209 -210 0
-209 -211 0
-210 -211 0
209 210 211 0
c gate 212 -195 -204 0
-195 -212 0
-204 -212 0
195 204 212 0
c gate 213 -12 -28 0
-12 -213 0
-28 -213 0
12 28 213 0
c gate 214 -161 -171 0
-161 -214 0
-171 -214 0
161 171 214 0
c gate 215 -213 -214 0
-213 -215 0
-214 -215 0
213 214 215 0
c gate 216 -197 -200 0
-197 -216 0
-200 -216 0
197 200 216 0
c gate 217 -215 216 0
-215 -217 0
216 -217 0
215 -216 217 0
c gate 218 -196 -205 0
-196 -218 0
-205 -218 0
196 205 218 0
c gate 219 -217 218 0
-217 -219 0
218 -219 0
217 -218 219 0
c gate 220 -201 -219 0
-201 -220 0
-219 -220 0
201 219 220 0
c gate 221 212 -220 0
212 -221 0
-220 -221 0
-212 220 221 0
c gate 222 -195 -221 0
-195 -222 0
-221 -222 0
195 221 222 0
c gate 223 -194 222 0
-194 -223 0
222 -223 0
194 -222 223 0
c gate 224 194 -222 0
194 -224 0
-222 -224 0
-194 222 224 0
c gate 225 -223 -224 0
-223 -225 0
-224 -225 0
223 224 225 0
c gate 226 -211 -225 0
-211 -226 0
-225 -226 0
211 225 226 0
c gate 227 211 225 0
211 -227 0
225 -227 0
-211 -225 227 0
c gate 228 -212 220 0
-212 -228 0
220 -228 0
212 -220 228 0
c gate 229 -201 -205 0
-201 -229 0
-205 -229 0
201 205 229 0
c gate 230 -221 229 0
-221 -230 0
229 -230 0
221 -229 230 0
c gate 231 -228 230 0
-228 -231 0
230 -231 0
228 -230 231 0
c gate 232 -196 -200 0
-196 -232 0
-200 -232 0
196 200 232 0
c gate 233 198 -229 0
198 -233 0
-229 -233 0
-198 229 233 0
c gate 234 232 -233 0
232 -234 0
-233 -234 0
-232 233 234 0
c gate 235 -231 234 0
-231 -235 0
234 -235 0
231 -234 235 0
c gate 236 -152 -232 0
-152 -236 0
-232 -236 0
152 232 236 0
c gate 237 190 -236 0
190 -237 0
-236 -237 0
-190 236 237 0
c gate 238 -235 237 0
-235 -238 0
237 -238 0
235 -237 238 0
c gate 239 -227 -238 0
-227 -239 0
-238 -239 0
227 238 239 0
c gate 240 -226 -239 0
-226 -240 0
-239 -240 0
226 239 240 0
c gate 241 -191 -240 0
-191 -241 0
-240 -241 0
191 240 241 0
c gate 242 -141 -241 0
-141 -242 0
-241 -242 0
141 241 242 0
c gate 243 -9 25 0
-9 -243 0
25 -243 0
9 -25 243 0
c gate 244 8 -24 0
8 -244 0
-24 -244 0
-8 24 244 0
c gate 245 9 -25 0
9 -245 0
-25 -245 0
-9 25 245 0
c gate 246 -244 -245 0
-244 -246 0
-245 -246 0
244 245 246 0
c gate 247 7 -23 0
7 -247 0
-23 -247 0
-7 23 247 0
c gate 248 -4 20 0
-4 -248 0
20 -248 0
4 -20 248 0
c gate 249 -1 17 0
-1 -249 0
17 -249 0
1 -17 249 0
c gate 250 -44 -249 0
-44 -250 0
-249 -250 0
44 249 250 0
c gate 251 -45 -72 0
-45 -251 0
-72 -251 0
45 72 251 0
c gate 252 -250 251 0
-250 -252 0
251 -252 0
250 -251 252 0
c gate 253 -71 -252 0
-71 -253 0
-252 -253 0
71 252 253 0
c gate 254 -248 253 0
-248 -254 0
253 -254 0
248 -253 254 0
c gate 255 4 -20 0
4 -255 0
-20 -255 0
-4 20 255 0
c gate 256 -69 -255 0
-69 -256 0
-255 -256 0
69 255 256 0
c gate 257 -254 256 0
-254 -257 0
256 -257 0
254 -256 257 0
c gate 258 -68 -257 0
-68 -258 0
-257 -258 0
68 257 258 0
c gate 259 -65 -258 0
-65 -259 0
-258 -259 0
65 258 259 0
c gate 260 -66 -259 0
-66 -260 0
-259 -260 0
66 259 260 0
c gate 261 -247 -260 0
-247 -261 0
-260 -261 0
247 260 261 0
c gate 262 -7 23 0
-7 -262 0
23 -262 0
7 -23 262 0
c gate 263 -8 24 0
-8 -263 0
24 -263 0
8 -24 263 0
c gate 264 -262 -263 0
-262 -264 0
-263 -264 0
262 263 264 0
c gate 265 -261 264 0
-261 -265 0
264 -265 0
261 -264 265 0
c gate 266 246 -265 0
246 -266 0
-265 -266 0
-246 265 266 0
c gate 267 -243 -266 0
-243 -267 0
-266 -267 0
243 266 267 0
c gate 268 -148 -267 0
-148 -268 0
-267 -268 0
148 267 268 0
c gate 269 -147 -268 0
-147 -269 0
-268 -269 0
147 268 269 0
c gate 270 -143 -269 0
-143 -270 0
-269 -270 0
143 269 270 0
c gate 271 -142 -270 0
-142 -271 0
-270 -271 0
142 270 271 0
c gate 272 -169 -271 0
-169 -272 0
-271 -272 0
169 271 272 0
c gate 273 -168 -272 0
-168 -273 0
-272 -273 0
168 272 273 0
c gate 274 -232 273 0
-232 -274 0
273 -274 0
232 -273 274 0
c gate 275 232 -273 0
232 -275 0
-273 -275 0
-232 273 275 0
c gate 276 -274 -275 0
-274 -276 0
-275 -276 0
274 275 276 0
c gate 277 -253 255 0
-253 -277 0
255 -277 0
253 -255 277 0
c gate 278 67 70 0
67 -278 0
70 -278 0
-67 -70 278 0
c gate 279 277 278 0
277 -279 0
278 -279 0
-277 -278 279 0
c gate 280 -247 279 0
-247 -280 0
279 -280 0
247 -279 280 0
c gate 281 265 -280 0
265 -281 0
-280 -281 0
-265 280 281 0
c gate 282 246 -281 0
246 -282 0
-281 -282 0
-246 281 282 0
c gate 283 -243 -282 0
-243 -283 0
-282 -283 0
243 282 283 0
c gate 284 -148 -283 0
-148 -284 0
-283 -284 0
148 283 284 0
c gate 285 -147 -284 0
-147 -285 0
-284 -285 0
147 284 285 0
c gate 286 -142 -168 0
-142 -286 0
-168 -286 0
142 168 286 0
c gate 287 285 286 0
285 -287 0
286 -287 0
-285 -286 287 0
c gate 288 -169 -287 0
-169 -288 0
-287 -288 0
169 287 288 0
c gate 289 -232 288 0
-232 -289 0
288 -289 0
232 -288 289 0
c gate 290 232 -288 0
232 -290 0
-288 -290 0
-232 288 290 0
c gate 291 -289 -290 0
-289 -291 0
-290 -291 0
289 290 291 0
c gate 292 276 291 0
276 -292 0
291 -292 0
-276 -291 292 0
c gate 293 -170 -285 0
-170 -293 0
-285 -293 0
170 285 293 0
c gate 294 271 293 0
271 -294 0
293 -294 0
-271 -293 294 0
c gate 295 -292 -294 0
-292 -295 0
-294 -295 0
292 294 295 0
c gate 296 -276 -291 0
-276 -296 0
-291 -296 0
276 291 296 0
c gate 297 295 -296 0
295 -297 0
-296 -297 0
-295 296 297 0
c gate 298 220 227 0
220 -298 0
227 -298 0
-220 -227 298 0
c gate 299 -277 -298 0
-277 -299 0
-298 -299 0
277 298 299 0
c gate 300 209 221 0
209 -300 0
221 -300 0
-209 -221 300 0
c gate 301 299 -300 0
299 -301 0
-300 -301 0
-299 300 301 0
c gate 302 242 301 0
242 -302 0
301 -302 0
-242 -301 302 0
c gate 303 -279 -299 0
-279 -303 0
-299 -303 0
279 299 303 0
c gate 304 -144 269 0
-144 -304 0
269 -304 0
144 -269 304 0
c gate 305 -285 304 0
-285 -305 0
304 -305 0
285 -304 305 0
c gate 306 -35 149 0
-35 -306 0
149 -306 0
35 -149 306 0
c gate 307 -135 306 0
-135 -307 0
306 -307 0
135 -306 307 0
c gate 308 260 -307 0
260 -308 0
-307 -308 0
-260 307 308 0
c gate 309 -82 -308 0
-82 -309 0
-308 -309 0
82 308 309 0
c gate 310 279 -309 0
279 -310 0
-309 -310 0
-279 309 310 0
c gate 311 -305 -310 0
-305 -311 0
-310 -311 0
305 310 311 0
c gate 312 -303 311 0
-303 -312 0
311 -312 0
303 -311 312 0
c gate 313 -302 312 0
-302 -313 0
312 -313 0
302 -312 313 0
c gate 314 297 -313 0
297 -314 0
-313 -314 0
-297 313 314 0
c gate 315 273 289 0
273 -315 0
289 -315 0
-273 -289 315 0
c gate 316 -194 -212 0
-194 -316 0
-212 -316 0
194 212 316 0
c gate 317 -229 316 0
-229 -317 0
316 -317 0
229 -316 317 0
c gate 318 315 -317 0
315 -318 0
-317 -318 0
-315 317 318 0
c gate 319 295 -318 0
295 -319 0
-318 -319 0
-295 318 319 0
c gate 320 -314 319 0
-314 -320 0
319 -320 0
314 -319 320 0
c gate 321 -242 320 0
-242 -321 0
320 -321 0
242 -320 321 0
c gate 322 117 -130 0
117 -322 0
-130 -322 0
-117 130 322 0
c gate 323 -99 -322 0
-99 -323 0
-322 -323 0
99 322 323 0
c gate 324 -93 323 0
-93 -324 0
323 -324 0
93 -323 324 0
c gate 325 -139 -324 0
-139 -325 0
-324 -325 0
139 324 325 0
c gate 326 188 325 0
188 -326 0
325 -326 0
-188 -325 326 0
c gate 327 191 -326 0
191 -327 0
-326 -327 0
-191 326 327 0
c gate 328 -240 -327 0
-240 -328 0
-327 -328 0
240 327 328 0
c gate 329 -320 -328 0
-320 -329 0
-328 -329 0
320 328 329 0
c gate 330 -321 -329 0
-321 -330 0
-329 -330 0
321 329 330 0
c PO
330 0
